instances/p2/p2_6_5-3.txt
{
	"num_strings": 6,
	"alphabet": "ACGT",
	"strings": [
		"ACGAG",
		"",
		"CAAC",
		"AATAA",
		"T",
		"GT"
	],
	"str_length":[5,0,4,5,1,2]
}